# Node Net
4591   1
7651   1
5400   1
 82   2
4411   2
3330   2
 72   3
2880   3
 88   3
7650   4
1891   4
8100   4
3870   5
 70   5
8070   5
2970   6
  7   6
7560   6
 14   7
 22   7
3420   7
8057   8
8055   8
8013   9
2161   9
3690  10
 29  10
 90  11
8047  11
